CMPL model generation - running

CMPL version: 1.11.0
Authors: Thomas Schleiff, Mike Steglich
Distributed under the GPLv3 

create model instance ...
write model instance ...
CMPL model generation - finished

Solver - running


Welcome to IBM(R) ILOG(R) CPLEX(R) Interactive Optimizer 12.7.1.0
  with Simplex, Mixed Integer & Barrier Optimizers
5725-A06 5725-A29 5724-Y48 5724-Y49 5724-Y54 5724-Y55 5655-Y21
Copyright IBM Corp. 1988, 2017.  All Rights Reserved.

Type 'help' for a list of available commands.
Type 'help' followed by a command name for more
information on commands.

CPLEX> Specified objective sense: MINIMIZE
Selected objective  name:  line[1]
Selected RHS        name:  RHS
Selected bound      name:  BOUND
Problem '/tmp/cmpl.T23840.mps' read.
Read time = 0.34 sec. (8.17 ticks)
CPLEX> CPXPARAM_Read_APIEncoding                        "UTF-8"
Tried aggregator 3 times.
MIP Presolve eliminated 19262 rows and 30749 columns.
MIP Presolve modified 340 coefficients.
Aggregator did 610 substitutions.
Reduced MIP has 2483 rows, 3234 columns, and 9438 nonzeros.
Reduced MIP has 3066 binaries, 0 generals, 0 SOSs, and 0 indicators.
Presolve time = 0.18 sec. (43.04 ticks)
Found incumbent of value 543.791982 after 0.26 sec. (62.77 ticks)
Probing fixed 9 vars, tightened 0 bounds.
Probing time = 0.03 sec. (4.16 ticks)
Tried aggregator 1 time.
MIP Presolve eliminated 0 rows and 9 columns.
MIP Presolve modified 35 coefficients.
Reduced MIP has 2483 rows, 3225 columns, and 9420 nonzeros.
Reduced MIP has 3225 binaries, 0 generals, 0 SOSs, and 0 indicators.
Presolve time = 0.02 sec. (8.05 ticks)
Probing time = 0.02 sec. (2.67 ticks)
Clique table members: 5879.
MIP emphasis: balance optimality and feasibility.
MIP search method: dynamic search.
Parallel mode: none, using 1 thread.
Root relaxation solution time = 0.02 sec. (4.38 ticks)

        Nodes                                         Cuts/
   Node  Left     Objective  IInf  Best Integer    Best Bound    ItCnt     Gap

*     0+    0                          543.7920      -44.4626           108.18%
      0     0      101.3621    20      543.7920      101.3621       97   81.36%
*     0+    0                          123.5656      101.3621            17.97%
*     0+    0                          101.9335      101.3621             0.56%
      0     0      101.9010     1      101.9335      Cuts: 26      105    0.03%
*     0+    0                          101.9289      101.9010             0.03%
      0     0        cutoff            101.9289                    105    0.00%
Elapsed time = 0.42 sec. (105.84 ticks, tree = 0.01 MB, solutions = 4)

Clique cuts applied:  5
Cover cuts applied:  14
Gomory fractional cuts applied:  7

Root node processing (before b&c):
  Real time             =    0.42 sec. (107.56 ticks)
Sequential b&c:
  Real time             =    0.00 sec. (0.00 ticks)
                          ------------
Total (root+branch&cut) =    0.42 sec. (107.56 ticks)

Solution pool: 4 solutions saved.

MIP - Integer optimal solution:  Objective =  1.0192890700e+02
Solution time =    0.42 sec.  Iterations = 105  Nodes = 0
Deterministic time = 107.66 ticks  (253.65 ticks/sec)

CPLEX> Incumbent solution written to file '/tmp/cmpl.T23840.gsol'.
CPLEX> 
CMPL: Time used for model generation: 2 seconds
CMPL: Time used for solving the model: 2 seconds


Solution written to ASCII file: results/output_generated_conf_0.3/2016-07-04-4/fair-nonlinear.sol

Solver - finished
